\ENCODING=ISO-8859-1
\Problem name: IloCplex

Minimize
 obj1: 653.443953220167 x(0)#0 + 1876.53776940407 x(1)#1
       + 1070.58208466236 x(2)#2 + 869.626356546304 x(3)#3
       + 1976.24011698984 x(4)#4 + 1548.47828528527 x(5)#5
       + 432.907611390698 x(6)#6 + 1209.76857290971 x(7)#7
       + 2408.37372515148 x(8)#8 + 1894.44345389352 x(9)#9
Subject To
 NodeDegree(0): x(0)#0 + x(1)#1 + x(2)#2 + x(3)#3  = 2
 NodeDegree(1): x(0)#0 + x(4)#4 + x(5)#5 + x(6)#6  = 2
 NodeDegree(2): x(1)#1 + x(4)#4 + x(7)#7 + x(8)#8  = 2
 NodeDegree(3): x(2)#2 + x(5)#5 + x(7)#7 + x(9)#9  = 2
 NodeDegree(4): x(3)#3 + x(6)#6 + x(8)#8 + x(9)#9  = 2
Bounds
 0 <= x(0)#0 <= 1
 0 <= x(1)#1 <= 1
 0 <= x(2)#2 <= 1
 0 <= x(3)#3 <= 1
 0 <= x(4)#4 <= 1
 0 <= x(5)#5 <= 1
 0 <= x(6)#6 <= 1
 0 <= x(7)#7 <= 1
 0 <= x(8)#8 <= 1
 0 <= x(9)#9 <= 1
Binaries
 x(0)#0  x(1)#1  x(2)#2  x(3)#3  x(4)#4  x(5)#5  x(6)#6  x(7)#7  x(8)#8 
 x(9)#9 
End
